200
75 75
1 60 277
2 60 302
3 60 299
4 60 88
5 60 195
6 59 103
7 58 406
8 58 185
9 58 444
10 58 327
11 57 400
12 57 136
13 57 100
14 57 305
15 57 220
16 57 636
17 56 919
18 56 65
19 56 17
20 56 62
21 55 411
22 55 461
23 55 320
24 55 205
25 54 862
26 54 78
27 54 875
28 54 943
29 53 764
30 53 20
31 53 925
32 53 357
33 52 507
34 52 142
35 52 456
36 51 460
37 51 386
38 50 797
39 50 279
40 49 902
41 49 945
42 48 270
43 48 993
44 48 655
45 47 680
46 47 366
47 47 474
48 46 245
49 46 353
50 46 214
51 46 100
52 45 585
53 45 836
54 45 971
55 45 898
56 45 176
57 45 817
58 44 517
59 44 73
60 44 784
61 44 629
62 43 895
63 43 492
64 43 825
65 42 428
66 41 604
67 41 837
68 41 914
69 41 360
70 40 156
71 40 899
72 39 783
73 39 196
74 39 490
75 39 238
76 38 928
77 38 448
78 38 595
79 38 280
80 37 295
81 37 776
82 37 616
83 36 31
84 36 916
85 36 887
86 36 384
87 35 377
88 35 5
89 34 688
90 34 169
91 34 48
92 34 303
93 34 153
94 34 274
95 34 575
96 34 209
97 33 278
98 33 233
99 33 441
100 32 241
101 31 206
102 31 807
103 31 693
104 30 300
105 30 480
106 30 433
107 30 737
108 30 26
109 29 348
110 29 700
111 29 56
112 28 588
113 28 877
114 28 893
115 28 384
116 28 886
117 28 426
118 28 321
119 28 794
120 27 25
121 27 142
122 27 980
123 26 109
124 26 206
125 25 450
126 25 358
127 25 363
128 25 132
129 24 759
130 24 845
131 24 798
132 23 337
133 23 675
134 23 146
135 23 95
136 22 28
137 22 501
138 22 769
139 22 97
140 22 827
141 22 827
142 22 618
143 22 107
144 21 748
145 21 400
146 21 54
147 21 883
148 20 545
149 20 584
150 19 978
151 19 93
152 18 8
153 18 241
154 18 541
155 18 556
156 17 691
157 17 400
158 16 970
159 16 187
160 16 863
161 15 277
162 15 195
163 15 698
164 15 557
165 15 711
166 15 157
167 15 191
168 14 627
169 14 49
170 14 416
171 14 939
172 14 610
173 13 585
174 13 305
175 13 86
176 12 382
177 12 224
178 12 676
179 11 444
180 11 620
181 11 711
182 11 337
183 11 872
184 11 706
185 11 354
186 11 391
187 10 132
188 9 160
189 9 648
190 8 417
191 8 531
192 8 700
193 8 985
194 7 311
195 7 485
196 7 514
197 7 338
198 7 5
199 7 57
200 7 622
